cell
1   0   0
0   1   0
0   0   1
5.385   5.385   5.385

atom
4
7   7   7
0   0   0.5 0.5
0   0.5 0   0.5
0   0.5 0.5 0
40  40  40  40

parameter
T   60
step    2000
dt  5

LJ potential
epsilon 1.032e-2
sigma   3.405
cutoff  10

